Results/Experiment 1 Results/New Benchmark/RES_40/output_p1_0.75_p2_0.00_n_40_01.txt
solutions: 0 nodes: 0  modelTime: 110  solveTime: 9  totalTime: 122  modelSize: 7362  readTime: 3 matchingSize: 0
